Maximize
  - 3.6219574208749 edge_0_1_0_0 - 2.2477597302688 edge_0_2_0_0
   - 0.2063220278088 edge_0_3_0_0 - 1.0774309962096 edge_0_7_0_0
   - 3.091999908723 edge_0_9_0_0 - 3.5640379236933 edge_0_10_0_0
   + 0.1377199256312 edge_0_12_0_0 - 3.30779 edge_0_14_0_0
   - 3.4385797936852 edge_0_17_0_0 - 0.135186133751212 edge_1_2_0_0
   + 0.0986240516766492 edge_1_3_0_0 - 0.6113931724708787 edge_1_4_0_0
   + 0.034840619306185 edge_1_6_0_0 - 0.8343803594836645 edge_1_7_0_0
   - 0.0957173527461742 edge_1_8_0_0 - 1.353529795335916 edge_1_12_0_0
   + 0.0341454798659199 edge_2_1_0_0 + 0.5617004942112925 edge_2_3_0_0
   + 0.1734639167372875 edge_2_4_0_0 + 0.4625271171206993 edge_2_6_0_0
   + 0.0429215426886343 edge_2_7_0_0 + 0.3018889908385168 edge_2_8_0_0
   - 0.2867578107397386 edge_2_12_0_0 - 0.5262777158099066 edge_2_18_0_0
   + 1.457125109518834 edge_3_1_0_0 + 1.222896609109989 edge_3_2_0_0
   + 2.43581567991884 edge_3_4_0_0 + 2.256544603797597 edge_3_6_0_0
   + 2.999008220595405 edge_3_7_0_0 + 1.229315680281107 edge_3_8_0_0
   + 0.3929091579897457 edge_3_9_0_0 + 0.5927146871046627 edge_3_10_0_0
   + 0.0876304526401422 edge_3_11_0_0 + 1.071207752222746 edge_3_12_0_0
   - 0.527828358236769 edge_3_13_0_0 + 0.5339249493838 edge_3_14_0_0
   - 0.6012605701788531 edge_3_15_0_0 - 0.119780176202713 edge_3_16_0_0
   - 0.2429208573656 edge_3_17_0_0 + 3.658091965445529 edge_3_18_0_0
   - 0.2332908444141558 edge_4_1_0_0 - 0.2742648683528118 edge_4_2_0_0
   + 0.1682955733769318 edge_4_3_0_0 + 0.6711683701184997 edge_4_6_0_0
   + 0.9656427329237309 edge_4_7_0_0 + 0.5103913591998446 edge_4_8_0_0
   - 0.3123872476835903 edge_4_9_0_0 - 0.8568412779359088 edge_4_10_0_0
   - 0.1612618548642313 edge_4_12_0_0 - 0.6783582235223816 edge_4_13_0_0
   - 0.42782084598444 edge_4_14_0_0 - 0.56590579627384 edge_4_17_0_0
   + 0.278202783001702 edge_4_18_0_0 - 0.8403891372285756 edge_6_1_0_0
   - 0.7492283082477222 edge_6_2_0_0 + 0.00105465926605663 edge_6_4_0_0
   + 0.1353702214879426 edge_6_7_0_0 + 0.113311533451202 edge_6_8_0_0
   - 0.1798951158413475 edge_6_11_0_0 - 1.099946992610503 edge_6_12_0_0
   - 0.565721267276126 edge_7_1_0_0 - 0.8835717072976224 edge_7_2_0_0
   - 0.7932376441754634 edge_7_3_0_0 + 0.1679013030541891 edge_7_4_0_0
   + 0.598546674602534 edge_7_6_0_0 + 1.265735619932475 edge_7_8_0_0
   + 0.8873574739111112 edge_7_9_0_0 + 0.7126571728197525 edge_7_10_0_0
   + 0.0789847803920203 edge_7_11_0_0 + 1.80853336789821 edge_7_12_0_0
   - 0.8130473791324786 edge_7_13_0_0 + 0.029058641010839 edge_7_14_0_0
   - 0.379749562608543 edge_7_15_0_0 - 0.30182827222584 edge_7_17_0_0
   + 1.651274203066543 edge_7_18_0_0 - 1.299386467606918 edge_8_6_0_0
   - 1.090937061091831 edge_8_7_0_0 - 1.327522345289738 edge_9_1_0_0
   - 0.7759902081195411 edge_9_3_0_0 - 1.520323531904131 edge_9_4_0_0
   - 0.5483427444003325 edge_9_6_0_0 + 0.5219900429591018 edge_9_7_0_0
   + 1.546625981708139 edge_9_8_0_0 + 2.773592659534 edge_9_10_0_0
   + 0.7951510928789237 edge_9_11_0_0 + 0.7292593438716638 edge_9_12_0_0
   - 0.1226953907553148 edge_9_13_0_0 + 0.9415335215733199 edge_9_14_0_0
   + 0.5858350007559179 edge_9_17_0_0 - 0.2357352841343572 edge_9_18_0_0
   - 0.8451772001885773 edge_10_1_0_0 - 0.5479149063448119 edge_10_3_0_0
   - 0.2352808637616417 edge_10_6_0_0 + 0.5334833673498759 edge_10_7_0_0
   + 0.9871431847548447 edge_10_8_0_0 + 3.262842595815101 edge_10_9_0_0
   + 0.7459674481489628 edge_10_11_0_0 + 0.7569606283048718 edge_10_12_0_0
   + 0.0793000997436947 edge_10_13_0_0 + 1.3970838305319 edge_10_14_0_0
   - 0.7566479047792793 edge_10_15_0_0 - 1.048767277556462 edge_10_16_0_0
   + 1.124687357939254 edge_10_17_0_0 + 0.453477438101856 edge_10_18_0_0
   - 0.2988849301289749 edge_11_9_0_0 + 0.0431916391609537 edge_11_10_0_0
   + 0.0598608271620739 edge_11_12_0_0 - 0.01825020767275 edge_11_14_0_0
   - 0.1344786872646283 edge_11_17_0_0 - 0.0729539355820737 edge_11_18_0_0
   + 0.2572228306567064 edge_12_1_0_0 - 0.6074865990586193 edge_12_2_0_0
   + 0.2408663543192984 edge_12_3_0_0 - 0.607137453575918 edge_12_4_0_0
   + 0.0316067528126113 edge_12_6_0_0 + 0.6952410035536154 edge_12_7_0_0
   + 0.1529129425901664 edge_12_8_0_0 + 1.879470245661519 edge_12_9_0_0
   + 2.269801515794119 edge_12_10_0_0 + 0.7659889382976203 edge_12_11_0_0
   + 0.8640513971636836 edge_12_13_0_0 + 2.3745606961544 edge_12_14_0_0
   + 0.8421772256922436 edge_12_15_0_0 + 1.438380636240264 edge_12_16_0_0
   + 2.688887074870766 edge_12_17_0_0 + 3.251076878963937 edge_12_18_0_0
   + 1.1489197787736 edge_13_14_0_0 - 0.6645261650293744 edge_13_15_0_0
   + 0.2490983328599336 edge_13_16_0_0 - 0.27960464286261 edge_13_17_0_0
   - 0.8171353985399999 edge_14_1_0_0 - 1.533759534541 edge_14_3_0_0
   - 1.4325394842856 edge_14_4_0_0 - 0.5099019273198 edge_14_6_0_0
   - 0.70075257746938 edge_14_7_0_0 - 0.36551479260356 edge_14_8_0_0
   - 0.06486490025521 edge_14_9_0_0 - 0.29909917096371 edge_14_10_0_0
   + 0.5210305401245 edge_14_11_0_0 + 1.2590153257526 edge_14_12_0_0
   + 3.4833202284456 edge_14_13_0_0 + 0.13653368311468 edge_14_15_0_0
   - 0.7009596164328 edge_14_16_0_0 + 2.5071598495704 edge_14_17_0_0
   + 0.8250807029708399 edge_14_18_0_0 - 0.2307236989112 edge_15_14_0_0
   + 0.7600471227123228 edge_15_16_0_0 + 1.510331359008113 edge_15_17_0_0
   - 0.8703443055902171 edge_15_18_0_0 + 0.8739748674986917 edge_16_15_0_0
   - 1.9068397711792 edge_17_2_0_0 - 0.73636325226944 edge_17_3_0_0
   - 0.9291363891147634 edge_17_6_0_0 - 1.176127541888443 edge_17_7_0_0
   - 0.7423633172023184 edge_17_8_0_0 + 0.14308297327296 edge_17_9_0_0
   - 0.2132295596223 edge_17_10_0_0 - 0.1325315472334067 edge_17_11_0_0
   + 0.9765641649389666 edge_17_12_0_0 + 0.473124222705265 edge_17_13_0_0
   + 0.43560697386358 edge_17_14_0_0 + 3.430932579534833 edge_17_15_0_0
   + 3.900537280966149 edge_17_16_0_0 + 1.2076894927702 edge_17_18_0_0
   - 1.166472222681461 edge_18_15_0_0 - 0.8332185844755277 edge_18_16_0_0
   - 1.1989594964368 edge_18_17_0_0
Subject To
 one_parent_1: edge_0_1_0_0 + edge_2_1_0_0 + edge_3_1_0_0 + edge_4_1_0_0
   + edge_6_1_0_0 + edge_7_1_0_0 + edge_9_1_0_0 + edge_10_1_0_0
   + edge_12_1_0_0 + edge_14_1_0_0 = 1
 consume_one_flow_unit_1: flow_0_1_0_0 - flow_1_2_0_0 - flow_1_3_0_0
   - flow_1_4_0_0 - flow_1_6_0_0 - flow_1_7_0_0 - flow_1_8_0_0
   - flow_1_12_0_0 + flow_2_1_0_0 + flow_3_1_0_0 + flow_4_1_0_0
   + flow_6_1_0_0 + flow_7_1_0_0 + flow_9_1_0_0 + flow_10_1_0_0
   + flow_12_1_0_0 + flow_14_1_0_0 = 1
 one_parent_2: edge_0_2_0_0 + edge_1_2_0_0 + edge_3_2_0_0 + edge_4_2_0_0
   + edge_6_2_0_0 + edge_7_2_0_0 + edge_12_2_0_0 + edge_17_2_0_0 = 1
 consume_one_flow_unit_2: flow_0_2_0_0 + flow_1_2_0_0 - flow_2_1_0_0
   - flow_2_3_0_0 - flow_2_4_0_0 - flow_2_6_0_0 - flow_2_7_0_0
   - flow_2_8_0_0 - flow_2_12_0_0 - flow_2_18_0_0 + flow_3_2_0_0
   + flow_4_2_0_0 + flow_6_2_0_0 + flow_7_2_0_0 + flow_12_2_0_0
   + flow_17_2_0_0 = 1
 one_parent_3: edge_0_3_0_0 + edge_1_3_0_0 + edge_2_3_0_0 + edge_4_3_0_0
   + edge_7_3_0_0 + edge_9_3_0_0 + edge_10_3_0_0 + edge_12_3_0_0
   + edge_14_3_0_0 + edge_17_3_0_0 = 1
 consume_one_flow_unit_3: flow_0_3_0_0 + flow_1_3_0_0 + flow_2_3_0_0
   - flow_3_1_0_0 - flow_3_2_0_0 - flow_3_4_0_0 - flow_3_6_0_0
   - flow_3_7_0_0 - flow_3_8_0_0 - flow_3_9_0_0 - flow_3_10_0_0
   - flow_3_11_0_0 - flow_3_12_0_0 - flow_3_13_0_0 - flow_3_14_0_0
   - flow_3_15_0_0 - flow_3_16_0_0 - flow_3_17_0_0 - flow_3_18_0_0
   + flow_4_3_0_0 + flow_7_3_0_0 + flow_9_3_0_0 + flow_10_3_0_0
   + flow_12_3_0_0 + flow_14_3_0_0 + flow_17_3_0_0 = 1
 one_parent_4: edge_1_4_0_0 + edge_2_4_0_0 + edge_3_4_0_0 + edge_6_4_0_0
   + edge_7_4_0_0 + edge_9_4_0_0 + edge_12_4_0_0 + edge_14_4_0_0 = 1
 consume_one_flow_unit_4: flow_1_4_0_0 + flow_2_4_0_0 + flow_3_4_0_0
   - flow_4_1_0_0 - flow_4_2_0_0 - flow_4_3_0_0 - flow_4_6_0_0
   - flow_4_7_0_0 - flow_4_8_0_0 - flow_4_9_0_0 - flow_4_10_0_0
   - flow_4_12_0_0 - flow_4_13_0_0 - flow_4_14_0_0 - flow_4_17_0_0
   - flow_4_18_0_0 + flow_6_4_0_0 + flow_7_4_0_0 + flow_9_4_0_0
   + flow_12_4_0_0 + flow_14_4_0_0 = 1
 one_parent_5: = 1
 consume_one_flow_unit_5: = 1
 one_parent_6: edge_1_6_0_0 + edge_2_6_0_0 + edge_3_6_0_0 + edge_4_6_0_0
   + edge_7_6_0_0 + edge_8_6_0_0 + edge_9_6_0_0 + edge_10_6_0_0
   + edge_12_6_0_0 + edge_14_6_0_0 + edge_17_6_0_0 = 1
 consume_one_flow_unit_6: flow_1_6_0_0 + flow_2_6_0_0 + flow_3_6_0_0
   + flow_4_6_0_0 - flow_6_1_0_0 - flow_6_2_0_0 - flow_6_4_0_0
   - flow_6_7_0_0 - flow_6_8_0_0 - flow_6_11_0_0 - flow_6_12_0_0
   + flow_7_6_0_0 + flow_8_6_0_0 + flow_9_6_0_0 + flow_10_6_0_0
   + flow_12_6_0_0 + flow_14_6_0_0 + flow_17_6_0_0 = 1
 one_parent_7: edge_0_7_0_0 + edge_1_7_0_0 + edge_2_7_0_0 + edge_3_7_0_0
   + edge_4_7_0_0 + edge_6_7_0_0 + edge_8_7_0_0 + edge_9_7_0_0
   + edge_10_7_0_0 + edge_12_7_0_0 + edge_14_7_0_0 + edge_17_7_0_0 = 1
 consume_one_flow_unit_7: flow_0_7_0_0 + flow_1_7_0_0 + flow_2_7_0_0
   + flow_3_7_0_0 + flow_4_7_0_0 + flow_6_7_0_0 - flow_7_1_0_0
   - flow_7_2_0_0 - flow_7_3_0_0 - flow_7_4_0_0 - flow_7_6_0_0
   - flow_7_8_0_0 - flow_7_9_0_0 - flow_7_10_0_0 - flow_7_11_0_0
   - flow_7_12_0_0 - flow_7_13_0_0 - flow_7_14_0_0 - flow_7_15_0_0
   - flow_7_17_0_0 - flow_7_18_0_0 + flow_8_7_0_0 + flow_9_7_0_0
   + flow_10_7_0_0 + flow_12_7_0_0 + flow_14_7_0_0 + flow_17_7_0_0 = 1
 one_parent_8: edge_1_8_0_0 + edge_2_8_0_0 + edge_3_8_0_0 + edge_4_8_0_0
   + edge_6_8_0_0 + edge_7_8_0_0 + edge_9_8_0_0 + edge_10_8_0_0
   + edge_12_8_0_0 + edge_14_8_0_0 + edge_17_8_0_0 = 1
 consume_one_flow_unit_8: flow_1_8_0_0 + flow_2_8_0_0 + flow_3_8_0_0
   + flow_4_8_0_0 + flow_6_8_0_0 + flow_7_8_0_0 - flow_8_6_0_0
   - flow_8_7_0_0 + flow_9_8_0_0 + flow_10_8_0_0 + flow_12_8_0_0
   + flow_14_8_0_0 + flow_17_8_0_0 = 1
 one_parent_9: edge_0_9_0_0 + edge_3_9_0_0 + edge_4_9_0_0 + edge_7_9_0_0
   + edge_10_9_0_0 + edge_11_9_0_0 + edge_12_9_0_0 + edge_14_9_0_0
   + edge_17_9_0_0 = 1
 consume_one_flow_unit_9: flow_0_9_0_0 + flow_3_9_0_0 + flow_4_9_0_0
   + flow_7_9_0_0 - flow_9_1_0_0 - flow_9_3_0_0 - flow_9_4_0_0
   - flow_9_6_0_0 - flow_9_7_0_0 - flow_9_8_0_0 - flow_9_10_0_0
   - flow_9_11_0_0 - flow_9_12_0_0 - flow_9_13_0_0 - flow_9_14_0_0
   - flow_9_17_0_0 - flow_9_18_0_0 + flow_10_9_0_0 + flow_11_9_0_0
   + flow_12_9_0_0 + flow_14_9_0_0 + flow_17_9_0_0 = 1
 one_parent_10: edge_0_10_0_0 + edge_3_10_0_0 + edge_4_10_0_0
   + edge_7_10_0_0 + edge_9_10_0_0 + edge_11_10_0_0 + edge_12_10_0_0
   + edge_14_10_0_0 + edge_17_10_0_0 = 1
 consume_one_flow_unit_10: flow_0_10_0_0 + flow_3_10_0_0 + flow_4_10_0_0
   + flow_7_10_0_0 + flow_9_10_0_0 - flow_10_1_0_0 - flow_10_3_0_0
   - flow_10_6_0_0 - flow_10_7_0_0 - flow_10_8_0_0 - flow_10_9_0_0
   - flow_10_11_0_0 - flow_10_12_0_0 - flow_10_13_0_0 - flow_10_14_0_0
   - flow_10_15_0_0 - flow_10_16_0_0 - flow_10_17_0_0 - flow_10_18_0_0
   + flow_11_10_0_0 + flow_12_10_0_0 + flow_14_10_0_0 + flow_17_10_0_0 = 1
 one_parent_11: edge_3_11_0_0 + edge_6_11_0_0 + edge_7_11_0_0
   + edge_9_11_0_0 + edge_10_11_0_0 + edge_12_11_0_0 + edge_14_11_0_0
   + edge_17_11_0_0 = 1
 consume_one_flow_unit_11: flow_3_11_0_0 + flow_6_11_0_0 + flow_7_11_0_0
   + flow_9_11_0_0 + flow_10_11_0_0 - flow_11_9_0_0 - flow_11_10_0_0
   - flow_11_12_0_0 - flow_11_14_0_0 - flow_11_17_0_0 - flow_11_18_0_0
   + flow_12_11_0_0 + flow_14_11_0_0 + flow_17_11_0_0 = 1
 one_parent_12: edge_0_12_0_0 + edge_1_12_0_0 + edge_2_12_0_0
   + edge_3_12_0_0 + edge_4_12_0_0 + edge_6_12_0_0 + edge_7_12_0_0
   + edge_9_12_0_0 + edge_10_12_0_0 + edge_11_12_0_0 + edge_14_12_0_0
   + edge_17_12_0_0 = 1
 consume_one_flow_unit_12: flow_0_12_0_0 + flow_1_12_0_0 + flow_2_12_0_0
   + flow_3_12_0_0 + flow_4_12_0_0 + flow_6_12_0_0 + flow_7_12_0_0
   + flow_9_12_0_0 + flow_10_12_0_0 + flow_11_12_0_0 - flow_12_1_0_0
   - flow_12_2_0_0 - flow_12_3_0_0 - flow_12_4_0_0 - flow_12_6_0_0
   - flow_12_7_0_0 - flow_12_8_0_0 - flow_12_9_0_0 - flow_12_10_0_0
   - flow_12_11_0_0 - flow_12_13_0_0 - flow_12_14_0_0 - flow_12_15_0_0
   - flow_12_16_0_0 - flow_12_17_0_0 - flow_12_18_0_0 + flow_14_12_0_0
   + flow_17_12_0_0 = 1
 one_parent_13: edge_3_13_0_0 + edge_4_13_0_0 + edge_7_13_0_0
   + edge_9_13_0_0 + edge_10_13_0_0 + edge_12_13_0_0 + edge_14_13_0_0
   + edge_17_13_0_0 = 1
 consume_one_flow_unit_13: flow_3_13_0_0 + flow_4_13_0_0 + flow_7_13_0_0
   + flow_9_13_0_0 + flow_10_13_0_0 + flow_12_13_0_0 - flow_13_14_0_0
   - flow_13_15_0_0 - flow_13_16_0_0 - flow_13_17_0_0 + flow_14_13_0_0
   + flow_17_13_0_0 = 1
 one_parent_14: edge_0_14_0_0 + edge_3_14_0_0 + edge_4_14_0_0
   + edge_7_14_0_0 + edge_9_14_0_0 + edge_10_14_0_0 + edge_11_14_0_0
   + edge_12_14_0_0 + edge_13_14_0_0 + edge_15_14_0_0 + edge_17_14_0_0 = 1
 consume_one_flow_unit_14: flow_0_14_0_0 + flow_3_14_0_0 + flow_4_14_0_0
   + flow_7_14_0_0 + flow_9_14_0_0 + flow_10_14_0_0 + flow_11_14_0_0
   + flow_12_14_0_0 + flow_13_14_0_0 - flow_14_1_0_0 - flow_14_3_0_0
   - flow_14_4_0_0 - flow_14_6_0_0 - flow_14_7_0_0 - flow_14_8_0_0
   - flow_14_9_0_0 - flow_14_10_0_0 - flow_14_11_0_0 - flow_14_12_0_0
   - flow_14_13_0_0 - flow_14_15_0_0 - flow_14_16_0_0 - flow_14_17_0_0
   - flow_14_18_0_0 + flow_15_14_0_0 + flow_17_14_0_0 = 1
 one_parent_15: edge_3_15_0_0 + edge_7_15_0_0 + edge_10_15_0_0
   + edge_12_15_0_0 + edge_13_15_0_0 + edge_14_15_0_0 + edge_16_15_0_0
   + edge_17_15_0_0 + edge_18_15_0_0 = 1
 consume_one_flow_unit_15: flow_3_15_0_0 + flow_7_15_0_0 + flow_10_15_0_0
   + flow_12_15_0_0 + flow_13_15_0_0 + flow_14_15_0_0 - flow_15_14_0_0
   - flow_15_16_0_0 - flow_15_17_0_0 - flow_15_18_0_0 + flow_16_15_0_0
   + flow_17_15_0_0 + flow_18_15_0_0 = 1
 one_parent_16: edge_3_16_0_0 + edge_10_16_0_0 + edge_12_16_0_0
   + edge_13_16_0_0 + edge_14_16_0_0 + edge_15_16_0_0 + edge_17_16_0_0
   + edge_18_16_0_0 = 1
 consume_one_flow_unit_16: flow_3_16_0_0 + flow_10_16_0_0 + flow_12_16_0_0
   + flow_13_16_0_0 + flow_14_16_0_0 + flow_15_16_0_0 - flow_16_15_0_0
   + flow_17_16_0_0 + flow_18_16_0_0 = 1
 one_parent_17: edge_0_17_0_0 + edge_3_17_0_0 + edge_4_17_0_0
   + edge_7_17_0_0 + edge_9_17_0_0 + edge_10_17_0_0 + edge_11_17_0_0
   + edge_12_17_0_0 + edge_13_17_0_0 + edge_14_17_0_0 + edge_15_17_0_0
   + edge_18_17_0_0 = 1
 consume_one_flow_unit_17: flow_0_17_0_0 + flow_3_17_0_0 + flow_4_17_0_0
   + flow_7_17_0_0 + flow_9_17_0_0 + flow_10_17_0_0 + flow_11_17_0_0
   + flow_12_17_0_0 + flow_13_17_0_0 + flow_14_17_0_0 + flow_15_17_0_0
   - flow_17_2_0_0 - flow_17_3_0_0 - flow_17_6_0_0 - flow_17_7_0_0
   - flow_17_8_0_0 - flow_17_9_0_0 - flow_17_10_0_0 - flow_17_11_0_0
   - flow_17_12_0_0 - flow_17_13_0_0 - flow_17_14_0_0 - flow_17_15_0_0
   - flow_17_16_0_0 - flow_17_18_0_0 + flow_18_17_0_0 = 1
 one_parent_18: edge_2_18_0_0 + edge_3_18_0_0 + edge_4_18_0_0
   + edge_7_18_0_0 + edge_9_18_0_0 + edge_10_18_0_0 + edge_11_18_0_0
   + edge_12_18_0_0 + edge_14_18_0_0 + edge_15_18_0_0 + edge_17_18_0_0 = 1
 consume_one_flow_unit_18: flow_2_18_0_0 + flow_3_18_0_0 + flow_4_18_0_0
   + flow_7_18_0_0 + flow_9_18_0_0 + flow_10_18_0_0 + flow_11_18_0_0
   + flow_12_18_0_0 + flow_14_18_0_0 + flow_15_18_0_0 + flow_17_18_0_0
   - flow_18_15_0_0 - flow_18_16_0_0 - flow_18_17_0_0 = 1
 root_flow: flow_0_1_0_0 + flow_0_2_0_0 + flow_0_3_0_0 + flow_0_7_0_0
   + flow_0_9_0_0 + flow_0_10_0_0 + flow_0_12_0_0 + flow_0_14_0_0
   + flow_0_17_0_0 = 18
 inactive_no_flow_0_1_0_0: flow_0_1_0_0 - 1000 edge_0_1_0_0 <= 0
 inactive_no_flow_0_2_0_0: flow_0_2_0_0 - 1000 edge_0_2_0_0 <= 0
 inactive_no_flow_0_3_0_0: flow_0_3_0_0 - 1000 edge_0_3_0_0 <= 0
 inactive_no_flow_0_7_0_0: flow_0_7_0_0 - 1000 edge_0_7_0_0 <= 0
 inactive_no_flow_0_9_0_0: flow_0_9_0_0 - 1000 edge_0_9_0_0 <= 0
 inactive_no_flow_0_10_0_0: flow_0_10_0_0 - 1000 edge_0_10_0_0 <= 0
 inactive_no_flow_0_12_0_0: flow_0_12_0_0 - 1000 edge_0_12_0_0 <= 0
 inactive_no_flow_0_14_0_0: flow_0_14_0_0 - 1000 edge_0_14_0_0 <= 0
 inactive_no_flow_0_17_0_0: flow_0_17_0_0 - 1000 edge_0_17_0_0 <= 0
 inactive_no_flow_1_2_0_0: flow_1_2_0_0 - 1000 edge_1_2_0_0 <= 0
 inactive_no_flow_1_3_0_0: flow_1_3_0_0 - 1000 edge_1_3_0_0 <= 0
 inactive_no_flow_1_4_0_0: flow_1_4_0_0 - 1000 edge_1_4_0_0 <= 0
 inactive_no_flow_1_6_0_0: flow_1_6_0_0 - 1000 edge_1_6_0_0 <= 0
 inactive_no_flow_1_7_0_0: flow_1_7_0_0 - 1000 edge_1_7_0_0 <= 0
 inactive_no_flow_1_8_0_0: flow_1_8_0_0 - 1000 edge_1_8_0_0 <= 0
 inactive_no_flow_1_12_0_0: flow_1_12_0_0 - 1000 edge_1_12_0_0 <= 0
 inactive_no_flow_2_1_0_0: flow_2_1_0_0 - 1000 edge_2_1_0_0 <= 0
 inactive_no_flow_2_3_0_0: flow_2_3_0_0 - 1000 edge_2_3_0_0 <= 0
 inactive_no_flow_2_4_0_0: flow_2_4_0_0 - 1000 edge_2_4_0_0 <= 0
 inactive_no_flow_2_6_0_0: flow_2_6_0_0 - 1000 edge_2_6_0_0 <= 0
 inactive_no_flow_2_7_0_0: flow_2_7_0_0 - 1000 edge_2_7_0_0 <= 0
 inactive_no_flow_2_8_0_0: flow_2_8_0_0 - 1000 edge_2_8_0_0 <= 0
 inactive_no_flow_2_12_0_0: flow_2_12_0_0 - 1000 edge_2_12_0_0 <= 0
 inactive_no_flow_2_18_0_0: flow_2_18_0_0 - 1000 edge_2_18_0_0 <= 0
 inactive_no_flow_3_1_0_0: flow_3_1_0_0 - 1000 edge_3_1_0_0 <= 0
 inactive_no_flow_3_2_0_0: flow_3_2_0_0 - 1000 edge_3_2_0_0 <= 0
 inactive_no_flow_3_4_0_0: flow_3_4_0_0 - 1000 edge_3_4_0_0 <= 0
 inactive_no_flow_3_6_0_0: flow_3_6_0_0 - 1000 edge_3_6_0_0 <= 0
 inactive_no_flow_3_7_0_0: flow_3_7_0_0 - 1000 edge_3_7_0_0 <= 0
 inactive_no_flow_3_8_0_0: flow_3_8_0_0 - 1000 edge_3_8_0_0 <= 0
 inactive_no_flow_3_9_0_0: flow_3_9_0_0 - 1000 edge_3_9_0_0 <= 0
 inactive_no_flow_3_10_0_0: flow_3_10_0_0 - 1000 edge_3_10_0_0 <= 0
 inactive_no_flow_3_11_0_0: flow_3_11_0_0 - 1000 edge_3_11_0_0 <= 0
 inactive_no_flow_3_12_0_0: flow_3_12_0_0 - 1000 edge_3_12_0_0 <= 0
 inactive_no_flow_3_13_0_0: flow_3_13_0_0 - 1000 edge_3_13_0_0 <= 0
 inactive_no_flow_3_14_0_0: flow_3_14_0_0 - 1000 edge_3_14_0_0 <= 0
 inactive_no_flow_3_15_0_0: flow_3_15_0_0 - 1000 edge_3_15_0_0 <= 0
 inactive_no_flow_3_16_0_0: flow_3_16_0_0 - 1000 edge_3_16_0_0 <= 0
 inactive_no_flow_3_17_0_0: flow_3_17_0_0 - 1000 edge_3_17_0_0 <= 0
 inactive_no_flow_3_18_0_0: flow_3_18_0_0 - 1000 edge_3_18_0_0 <= 0
 inactive_no_flow_4_1_0_0: flow_4_1_0_0 - 1000 edge_4_1_0_0 <= 0
 inactive_no_flow_4_2_0_0: flow_4_2_0_0 - 1000 edge_4_2_0_0 <= 0
 inactive_no_flow_4_3_0_0: flow_4_3_0_0 - 1000 edge_4_3_0_0 <= 0
 inactive_no_flow_4_6_0_0: flow_4_6_0_0 - 1000 edge_4_6_0_0 <= 0
 inactive_no_flow_4_7_0_0: flow_4_7_0_0 - 1000 edge_4_7_0_0 <= 0
 inactive_no_flow_4_8_0_0: flow_4_8_0_0 - 1000 edge_4_8_0_0 <= 0
 inactive_no_flow_4_9_0_0: flow_4_9_0_0 - 1000 edge_4_9_0_0 <= 0
 inactive_no_flow_4_10_0_0: flow_4_10_0_0 - 1000 edge_4_10_0_0 <= 0
 inactive_no_flow_4_12_0_0: flow_4_12_0_0 - 1000 edge_4_12_0_0 <= 0
 inactive_no_flow_4_13_0_0: flow_4_13_0_0 - 1000 edge_4_13_0_0 <= 0
 inactive_no_flow_4_14_0_0: flow_4_14_0_0 - 1000 edge_4_14_0_0 <= 0
 inactive_no_flow_4_17_0_0: flow_4_17_0_0 - 1000 edge_4_17_0_0 <= 0
 inactive_no_flow_4_18_0_0: flow_4_18_0_0 - 1000 edge_4_18_0_0 <= 0
 inactive_no_flow_6_1_0_0: flow_6_1_0_0 - 1000 edge_6_1_0_0 <= 0
 inactive_no_flow_6_2_0_0: flow_6_2_0_0 - 1000 edge_6_2_0_0 <= 0
 inactive_no_flow_6_4_0_0: flow_6_4_0_0 - 1000 edge_6_4_0_0 <= 0
 inactive_no_flow_6_7_0_0: flow_6_7_0_0 - 1000 edge_6_7_0_0 <= 0
 inactive_no_flow_6_8_0_0: flow_6_8_0_0 - 1000 edge_6_8_0_0 <= 0
 inactive_no_flow_6_11_0_0: flow_6_11_0_0 - 1000 edge_6_11_0_0 <= 0
 inactive_no_flow_6_12_0_0: flow_6_12_0_0 - 1000 edge_6_12_0_0 <= 0
 inactive_no_flow_7_1_0_0: flow_7_1_0_0 - 1000 edge_7_1_0_0 <= 0
 inactive_no_flow_7_2_0_0: flow_7_2_0_0 - 1000 edge_7_2_0_0 <= 0
 inactive_no_flow_7_3_0_0: flow_7_3_0_0 - 1000 edge_7_3_0_0 <= 0
 inactive_no_flow_7_4_0_0: flow_7_4_0_0 - 1000 edge_7_4_0_0 <= 0
 inactive_no_flow_7_6_0_0: flow_7_6_0_0 - 1000 edge_7_6_0_0 <= 0
 inactive_no_flow_7_8_0_0: flow_7_8_0_0 - 1000 edge_7_8_0_0 <= 0
 inactive_no_flow_7_9_0_0: flow_7_9_0_0 - 1000 edge_7_9_0_0 <= 0
 inactive_no_flow_7_10_0_0: flow_7_10_0_0 - 1000 edge_7_10_0_0 <= 0
 inactive_no_flow_7_11_0_0: flow_7_11_0_0 - 1000 edge_7_11_0_0 <= 0
 inactive_no_flow_7_12_0_0: flow_7_12_0_0 - 1000 edge_7_12_0_0 <= 0
 inactive_no_flow_7_13_0_0: flow_7_13_0_0 - 1000 edge_7_13_0_0 <= 0
 inactive_no_flow_7_14_0_0: flow_7_14_0_0 - 1000 edge_7_14_0_0 <= 0
 inactive_no_flow_7_15_0_0: flow_7_15_0_0 - 1000 edge_7_15_0_0 <= 0
 inactive_no_flow_7_17_0_0: flow_7_17_0_0 - 1000 edge_7_17_0_0 <= 0
 inactive_no_flow_7_18_0_0: flow_7_18_0_0 - 1000 edge_7_18_0_0 <= 0
 inactive_no_flow_8_6_0_0: flow_8_6_0_0 - 1000 edge_8_6_0_0 <= 0
 inactive_no_flow_8_7_0_0: flow_8_7_0_0 - 1000 edge_8_7_0_0 <= 0
 inactive_no_flow_9_1_0_0: flow_9_1_0_0 - 1000 edge_9_1_0_0 <= 0
 inactive_no_flow_9_3_0_0: flow_9_3_0_0 - 1000 edge_9_3_0_0 <= 0
 inactive_no_flow_9_4_0_0: flow_9_4_0_0 - 1000 edge_9_4_0_0 <= 0
 inactive_no_flow_9_6_0_0: flow_9_6_0_0 - 1000 edge_9_6_0_0 <= 0
 inactive_no_flow_9_7_0_0: flow_9_7_0_0 - 1000 edge_9_7_0_0 <= 0
 inactive_no_flow_9_8_0_0: flow_9_8_0_0 - 1000 edge_9_8_0_0 <= 0
 inactive_no_flow_9_10_0_0: flow_9_10_0_0 - 1000 edge_9_10_0_0 <= 0
 inactive_no_flow_9_11_0_0: flow_9_11_0_0 - 1000 edge_9_11_0_0 <= 0
 inactive_no_flow_9_12_0_0: flow_9_12_0_0 - 1000 edge_9_12_0_0 <= 0
 inactive_no_flow_9_13_0_0: flow_9_13_0_0 - 1000 edge_9_13_0_0 <= 0
 inactive_no_flow_9_14_0_0: flow_9_14_0_0 - 1000 edge_9_14_0_0 <= 0
 inactive_no_flow_9_17_0_0: flow_9_17_0_0 - 1000 edge_9_17_0_0 <= 0
 inactive_no_flow_9_18_0_0: flow_9_18_0_0 - 1000 edge_9_18_0_0 <= 0
 inactive_no_flow_10_1_0_0: flow_10_1_0_0 - 1000 edge_10_1_0_0 <= 0
 inactive_no_flow_10_3_0_0: flow_10_3_0_0 - 1000 edge_10_3_0_0 <= 0
 inactive_no_flow_10_6_0_0: flow_10_6_0_0 - 1000 edge_10_6_0_0 <= 0
 inactive_no_flow_10_7_0_0: flow_10_7_0_0 - 1000 edge_10_7_0_0 <= 0
 inactive_no_flow_10_8_0_0: flow_10_8_0_0 - 1000 edge_10_8_0_0 <= 0
 inactive_no_flow_10_9_0_0: flow_10_9_0_0 - 1000 edge_10_9_0_0 <= 0
 inactive_no_flow_10_11_0_0: flow_10_11_0_0 - 1000 edge_10_11_0_0 <= 0
 inactive_no_flow_10_12_0_0: flow_10_12_0_0 - 1000 edge_10_12_0_0 <= 0
 inactive_no_flow_10_13_0_0: flow_10_13_0_0 - 1000 edge_10_13_0_0 <= 0
 inactive_no_flow_10_14_0_0: flow_10_14_0_0 - 1000 edge_10_14_0_0 <= 0
 inactive_no_flow_10_15_0_0: flow_10_15_0_0 - 1000 edge_10_15_0_0 <= 0
 inactive_no_flow_10_16_0_0: flow_10_16_0_0 - 1000 edge_10_16_0_0 <= 0
 inactive_no_flow_10_17_0_0: flow_10_17_0_0 - 1000 edge_10_17_0_0 <= 0
 inactive_no_flow_10_18_0_0: flow_10_18_0_0 - 1000 edge_10_18_0_0 <= 0
 inactive_no_flow_11_9_0_0: flow_11_9_0_0 - 1000 edge_11_9_0_0 <= 0
 inactive_no_flow_11_10_0_0: flow_11_10_0_0 - 1000 edge_11_10_0_0 <= 0
 inactive_no_flow_11_12_0_0: flow_11_12_0_0 - 1000 edge_11_12_0_0 <= 0
 inactive_no_flow_11_14_0_0: flow_11_14_0_0 - 1000 edge_11_14_0_0 <= 0
 inactive_no_flow_11_17_0_0: flow_11_17_0_0 - 1000 edge_11_17_0_0 <= 0
 inactive_no_flow_11_18_0_0: flow_11_18_0_0 - 1000 edge_11_18_0_0 <= 0
 inactive_no_flow_12_1_0_0: flow_12_1_0_0 - 1000 edge_12_1_0_0 <= 0
 inactive_no_flow_12_2_0_0: flow_12_2_0_0 - 1000 edge_12_2_0_0 <= 0
 inactive_no_flow_12_3_0_0: flow_12_3_0_0 - 1000 edge_12_3_0_0 <= 0
 inactive_no_flow_12_4_0_0: flow_12_4_0_0 - 1000 edge_12_4_0_0 <= 0
 inactive_no_flow_12_6_0_0: flow_12_6_0_0 - 1000 edge_12_6_0_0 <= 0
 inactive_no_flow_12_7_0_0: flow_12_7_0_0 - 1000 edge_12_7_0_0 <= 0
 inactive_no_flow_12_8_0_0: flow_12_8_0_0 - 1000 edge_12_8_0_0 <= 0
 inactive_no_flow_12_9_0_0: flow_12_9_0_0 - 1000 edge_12_9_0_0 <= 0
 inactive_no_flow_12_10_0_0: flow_12_10_0_0 - 1000 edge_12_10_0_0 <= 0
 inactive_no_flow_12_11_0_0: flow_12_11_0_0 - 1000 edge_12_11_0_0 <= 0
 inactive_no_flow_12_13_0_0: flow_12_13_0_0 - 1000 edge_12_13_0_0 <= 0
 inactive_no_flow_12_14_0_0: flow_12_14_0_0 - 1000 edge_12_14_0_0 <= 0
 inactive_no_flow_12_15_0_0: flow_12_15_0_0 - 1000 edge_12_15_0_0 <= 0
 inactive_no_flow_12_16_0_0: flow_12_16_0_0 - 1000 edge_12_16_0_0 <= 0
 inactive_no_flow_12_17_0_0: flow_12_17_0_0 - 1000 edge_12_17_0_0 <= 0
 inactive_no_flow_12_18_0_0: flow_12_18_0_0 - 1000 edge_12_18_0_0 <= 0
 inactive_no_flow_13_14_0_0: flow_13_14_0_0 - 1000 edge_13_14_0_0 <= 0
 inactive_no_flow_13_15_0_0: flow_13_15_0_0 - 1000 edge_13_15_0_0 <= 0
 inactive_no_flow_13_16_0_0: flow_13_16_0_0 - 1000 edge_13_16_0_0 <= 0
 inactive_no_flow_13_17_0_0: flow_13_17_0_0 - 1000 edge_13_17_0_0 <= 0
 inactive_no_flow_14_1_0_0: flow_14_1_0_0 - 1000 edge_14_1_0_0 <= 0
 inactive_no_flow_14_3_0_0: flow_14_3_0_0 - 1000 edge_14_3_0_0 <= 0
 inactive_no_flow_14_4_0_0: flow_14_4_0_0 - 1000 edge_14_4_0_0 <= 0
 inactive_no_flow_14_6_0_0: flow_14_6_0_0 - 1000 edge_14_6_0_0 <= 0
 inactive_no_flow_14_7_0_0: flow_14_7_0_0 - 1000 edge_14_7_0_0 <= 0
 inactive_no_flow_14_8_0_0: flow_14_8_0_0 - 1000 edge_14_8_0_0 <= 0
 inactive_no_flow_14_9_0_0: flow_14_9_0_0 - 1000 edge_14_9_0_0 <= 0
 inactive_no_flow_14_10_0_0: flow_14_10_0_0 - 1000 edge_14_10_0_0 <= 0
 inactive_no_flow_14_11_0_0: flow_14_11_0_0 - 1000 edge_14_11_0_0 <= 0
 inactive_no_flow_14_12_0_0: flow_14_12_0_0 - 1000 edge_14_12_0_0 <= 0
 inactive_no_flow_14_13_0_0: flow_14_13_0_0 - 1000 edge_14_13_0_0 <= 0
 inactive_no_flow_14_15_0_0: flow_14_15_0_0 - 1000 edge_14_15_0_0 <= 0
 inactive_no_flow_14_16_0_0: flow_14_16_0_0 - 1000 edge_14_16_0_0 <= 0
 inactive_no_flow_14_17_0_0: flow_14_17_0_0 - 1000 edge_14_17_0_0 <= 0
 inactive_no_flow_14_18_0_0: flow_14_18_0_0 - 1000 edge_14_18_0_0 <= 0
 inactive_no_flow_15_14_0_0: flow_15_14_0_0 - 1000 edge_15_14_0_0 <= 0
 inactive_no_flow_15_16_0_0: flow_15_16_0_0 - 1000 edge_15_16_0_0 <= 0
 inactive_no_flow_15_17_0_0: flow_15_17_0_0 - 1000 edge_15_17_0_0 <= 0
 inactive_no_flow_15_18_0_0: flow_15_18_0_0 - 1000 edge_15_18_0_0 <= 0
 inactive_no_flow_16_15_0_0: flow_16_15_0_0 - 1000 edge_16_15_0_0 <= 0
 inactive_no_flow_17_2_0_0: flow_17_2_0_0 - 1000 edge_17_2_0_0 <= 0
 inactive_no_flow_17_3_0_0: flow_17_3_0_0 - 1000 edge_17_3_0_0 <= 0
 inactive_no_flow_17_6_0_0: flow_17_6_0_0 - 1000 edge_17_6_0_0 <= 0
 inactive_no_flow_17_7_0_0: flow_17_7_0_0 - 1000 edge_17_7_0_0 <= 0
 inactive_no_flow_17_8_0_0: flow_17_8_0_0 - 1000 edge_17_8_0_0 <= 0
 inactive_no_flow_17_9_0_0: flow_17_9_0_0 - 1000 edge_17_9_0_0 <= 0
 inactive_no_flow_17_10_0_0: flow_17_10_0_0 - 1000 edge_17_10_0_0 <= 0
 inactive_no_flow_17_11_0_0: flow_17_11_0_0 - 1000 edge_17_11_0_0 <= 0
 inactive_no_flow_17_12_0_0: flow_17_12_0_0 - 1000 edge_17_12_0_0 <= 0
 inactive_no_flow_17_13_0_0: flow_17_13_0_0 - 1000 edge_17_13_0_0 <= 0
 inactive_no_flow_17_14_0_0: flow_17_14_0_0 - 1000 edge_17_14_0_0 <= 0
 inactive_no_flow_17_15_0_0: flow_17_15_0_0 - 1000 edge_17_15_0_0 <= 0
 inactive_no_flow_17_16_0_0: flow_17_16_0_0 - 1000 edge_17_16_0_0 <= 0
 inactive_no_flow_17_18_0_0: flow_17_18_0_0 - 1000 edge_17_18_0_0 <= 0
 inactive_no_flow_18_15_0_0: flow_18_15_0_0 - 1000 edge_18_15_0_0 <= 0
 inactive_no_flow_18_16_0_0: flow_18_16_0_0 - 1000 edge_18_16_0_0 <= 0
 inactive_no_flow_18_17_0_0: flow_18_17_0_0 - 1000 edge_18_17_0_0 <= 0
Bounds
Binaries
 edge_0_1_0_0 edge_0_2_0_0 edge_0_3_0_0 edge_0_7_0_0 edge_0_9_0_0
 edge_0_10_0_0 edge_0_12_0_0 edge_0_14_0_0 edge_0_17_0_0 edge_1_2_0_0
 edge_1_3_0_0 edge_1_4_0_0 edge_1_6_0_0 edge_1_7_0_0 edge_1_8_0_0
 edge_1_12_0_0 edge_2_1_0_0 edge_2_3_0_0 edge_2_4_0_0 edge_2_6_0_0
 edge_2_7_0_0 edge_2_8_0_0 edge_2_12_0_0 edge_2_18_0_0 edge_3_1_0_0
 edge_3_2_0_0 edge_3_4_0_0 edge_3_6_0_0 edge_3_7_0_0 edge_3_8_0_0
 edge_3_9_0_0 edge_3_10_0_0 edge_3_11_0_0 edge_3_12_0_0 edge_3_13_0_0
 edge_3_14_0_0 edge_3_15_0_0 edge_3_16_0_0 edge_3_17_0_0 edge_3_18_0_0
 edge_4_1_0_0 edge_4_2_0_0 edge_4_3_0_0 edge_4_6_0_0 edge_4_7_0_0
 edge_4_8_0_0 edge_4_9_0_0 edge_4_10_0_0 edge_4_12_0_0 edge_4_13_0_0
 edge_4_14_0_0 edge_4_17_0_0 edge_4_18_0_0 edge_6_1_0_0 edge_6_2_0_0
 edge_6_4_0_0 edge_6_7_0_0 edge_6_8_0_0 edge_6_11_0_0 edge_6_12_0_0
 edge_7_1_0_0 edge_7_2_0_0 edge_7_3_0_0 edge_7_4_0_0 edge_7_6_0_0
 edge_7_8_0_0 edge_7_9_0_0 edge_7_10_0_0 edge_7_11_0_0 edge_7_12_0_0
 edge_7_13_0_0 edge_7_14_0_0 edge_7_15_0_0 edge_7_17_0_0 edge_7_18_0_0
 edge_8_6_0_0 edge_8_7_0_0 edge_9_1_0_0 edge_9_3_0_0 edge_9_4_0_0
 edge_9_6_0_0 edge_9_7_0_0 edge_9_8_0_0 edge_9_10_0_0 edge_9_11_0_0
 edge_9_12_0_0 edge_9_13_0_0 edge_9_14_0_0 edge_9_17_0_0 edge_9_18_0_0
 edge_10_1_0_0 edge_10_3_0_0 edge_10_6_0_0 edge_10_7_0_0 edge_10_8_0_0
 edge_10_9_0_0 edge_10_11_0_0 edge_10_12_0_0 edge_10_13_0_0 edge_10_14_0_0
 edge_10_15_0_0 edge_10_16_0_0 edge_10_17_0_0 edge_10_18_0_0 edge_11_9_0_0
 edge_11_10_0_0 edge_11_12_0_0 edge_11_14_0_0 edge_11_17_0_0 edge_11_18_0_0
 edge_12_1_0_0 edge_12_2_0_0 edge_12_3_0_0 edge_12_4_0_0 edge_12_6_0_0
 edge_12_7_0_0 edge_12_8_0_0 edge_12_9_0_0 edge_12_10_0_0 edge_12_11_0_0
 edge_12_13_0_0 edge_12_14_0_0 edge_12_15_0_0 edge_12_16_0_0 edge_12_17_0_0
 edge_12_18_0_0 edge_13_14_0_0 edge_13_15_0_0 edge_13_16_0_0 edge_13_17_0_0
 edge_14_1_0_0 edge_14_3_0_0 edge_14_4_0_0 edge_14_6_0_0 edge_14_7_0_0
 edge_14_8_0_0 edge_14_9_0_0 edge_14_10_0_0 edge_14_11_0_0 edge_14_12_0_0
 edge_14_13_0_0 edge_14_15_0_0 edge_14_16_0_0 edge_14_17_0_0 edge_14_18_0_0
 edge_15_14_0_0 edge_15_16_0_0 edge_15_17_0_0 edge_15_18_0_0 edge_16_15_0_0
 edge_17_2_0_0 edge_17_3_0_0 edge_17_6_0_0 edge_17_7_0_0 edge_17_8_0_0
 edge_17_9_0_0 edge_17_10_0_0 edge_17_11_0_0 edge_17_12_0_0 edge_17_13_0_0
 edge_17_14_0_0 edge_17_15_0_0 edge_17_16_0_0 edge_17_18_0_0 edge_18_15_0_0
 edge_18_16_0_0 edge_18_17_0_0
End
